26698
[81, 94, 12, 32, 75, 36, 4, 77, 51, 95, 38, 29, 84, 67, 72, 68, 63, 39, 53, 1, 43, 49, 80, 24, 60, 57, 27, 92, 66, 50, 86, 8, 6, 56, 19, 11, 54, 82, 33, 28, 45, 2, 42, 13, 70, 40, 99, 47, 26, 85, 34, 61, 59, 76, 22, 97, 90, 44, 31, 46, 10, 14, 16, 73, 58, 20, 71, 9, 83, 89, 48, 5, 62, 0, 91, 7, 41, 88, 30, 79, 55, 96, 3, 64, 65, 25, 74, 18, 52, 87, 15, 21, 93, 69, 78, 17, 23, 37, 35, 98]
